(set-info :smt-lib-version 2.6)
(set-info :category "crafted")
(set-logic QF_FFA)
(define-sort FF0 () (_ FiniteField 52435875175126190479447740508185965837690552500527637822603658699938581184513))
(declare-fun x17 () Bool)
(declare-fun x16 () Bool)
(declare-fun x15 () Bool)
(declare-fun x14 () Bool)
(declare-fun x13 () Bool)
(declare-fun x12 () Bool)
(declare-fun x11 () Bool)
(declare-fun x10 () Bool)
(declare-fun x9 () Bool)
(declare-fun x8 () Bool)
(declare-fun x7 () Bool)
(declare-fun x6 () Bool)
(declare-fun x5 () Bool)
(declare-fun x4 () Bool)
(declare-fun x3 () Bool)
(declare-fun x2 () Bool)
(declare-fun x1 () Bool)
(declare-fun x0 () Bool)
(declare-fun return_n17 () FF0)
(declare-fun x17_n11 () FF0)
(declare-fun mul_n34 () FF0)
(declare-fun x16_n3 () FF0)
(declare-fun mul_n33 () FF0)
(declare-fun x15_n15 () FF0)
(declare-fun mul_n32 () FF0)
(declare-fun x14_n6 () FF0)
(declare-fun mul_n31 () FF0)
(declare-fun x13_n8 () FF0)
(declare-fun mul_n30 () FF0)
(declare-fun x12_n0 () FF0)
(declare-fun mul_n29 () FF0)
(declare-fun x11_n12 () FF0)
(declare-fun mul_n28 () FF0)
(declare-fun x10_n4 () FF0)
(declare-fun mul_n27 () FF0)
(declare-fun mul_n26 () FF0)
(declare-fun x8_n1 () FF0)
(declare-fun mul_n25 () FF0)
(declare-fun x7_n14 () FF0)
(declare-fun mul_n24 () FF0)
(declare-fun x6_n16 () FF0)
(declare-fun mul_n23 () FF0)
(declare-fun x5_n10 () FF0)
(declare-fun mul_n22 () FF0)
(declare-fun x4_n2 () FF0)
(declare-fun mul_n21 () FF0)
(declare-fun x3_n7 () FF0)
(declare-fun mul_n20 () FF0)
(declare-fun x2_n18 () FF0)
(declare-fun mul_n19 () FF0)
(declare-fun x1_n13 () FF0)
(declare-fun x0_n5 () FF0)
(declare-fun x9_n9 () FF0)
(assert 
  (let ((let0 x17))
  (let ((let1 x16))
  (let ((let2 x15))
  (let ((let3 x14))
  (let ((let4 x13))
  (let ((let5 x12))
  (let ((let6 x11))
  (let ((let7 x10))
  (let ((let8 x9))
  (let ((let9 x8))
  (let ((let10 x7))
  (let ((let11 x6))
  (let ((let12 x5))
  (let ((let13 x4))
  (let ((let14 x3))
  (let ((let15 x2))
  (let ((let16 x1))
  (let ((let17 x0))
  (let ((let18 (or let17 let16 let15 let14 let13 let12 let11 let10 let9 let8 let7 let6 let5 let4 let3 let2 let1 let0)))
  (let ((let19 return_n17))
  (let ((let20 (as ff1 FF0)))
  (let ((let21 (= let20 let19)))
  (let ((let22 (= let21 let18)))
  (let ((let23 (as ff0 FF0)))
  (let ((let24 (= let23 let19)))
  (let ((let25 (or let21 let24)))
  (let ((let26 (and let25 let22)))
  (let ((let27 (as ff52435875175126190479447740508185965837690552500527637822603658699938581184512 FF0)))
  (let ((let28 (ff.mul let19 let27)))
  (let ((let29 (ff.add let28 let20)))
  (let ((let30 x17_n11))
  (let ((let31 (ff.mul let30 let27)))
  (let ((let32 (ff.add let31 let20)))
  (let ((let33 mul_n34))
  (let ((let34 (ff.mul let33 let32)))
  (let ((let35 (= let34 let29)))
  (let ((let36 x16_n3))
  (let ((let37 (ff.mul let36 let27)))
  (let ((let38 (ff.add let37 let20)))
  (let ((let39 mul_n33))
  (let ((let40 (ff.mul let39 let38)))
  (let ((let41 (= let40 let33)))
  (let ((let42 x15_n15))
  (let ((let43 (ff.mul let42 let27)))
  (let ((let44 (ff.add let43 let20)))
  (let ((let45 mul_n32))
  (let ((let46 (ff.mul let45 let44)))
  (let ((let47 (= let46 let39)))
  (let ((let48 x14_n6))
  (let ((let49 (ff.mul let48 let27)))
  (let ((let50 (ff.add let49 let20)))
  (let ((let51 mul_n31))
  (let ((let52 (ff.mul let51 let50)))
  (let ((let53 (= let52 let45)))
  (let ((let54 x13_n8))
  (let ((let55 (ff.mul let54 let27)))
  (let ((let56 (ff.add let55 let20)))
  (let ((let57 mul_n30))
  (let ((let58 (ff.mul let57 let56)))
  (let ((let59 (= let58 let51)))
  (let ((let60 x12_n0))
  (let ((let61 (ff.mul let60 let27)))
  (let ((let62 (ff.add let61 let20)))
  (let ((let63 mul_n29))
  (let ((let64 (ff.mul let63 let62)))
  (let ((let65 (= let64 let57)))
  (let ((let66 x11_n12))
  (let ((let67 (ff.mul let66 let27)))
  (let ((let68 (ff.add let67 let20)))
  (let ((let69 mul_n28))
  (let ((let70 (ff.mul let69 let68)))
  (let ((let71 (= let70 let63)))
  (let ((let72 x10_n4))
  (let ((let73 (ff.mul let72 let27)))
  (let ((let74 (ff.add let73 let20)))
  (let ((let75 mul_n27))
  (let ((let76 (ff.mul let75 let74)))
  (let ((let77 (= let76 let69)))
  (let ((let78 mul_n26))
  (let ((let79 x8_n1))
  (let ((let80 (ff.mul let79 let27)))
  (let ((let81 (ff.add let80 let20)))
  (let ((let82 mul_n25))
  (let ((let83 (ff.mul let82 let81)))
  (let ((let84 (= let83 let78)))
  (let ((let85 x7_n14))
  (let ((let86 (ff.mul let85 let27)))
  (let ((let87 (ff.add let86 let20)))
  (let ((let88 mul_n24))
  (let ((let89 (ff.mul let88 let87)))
  (let ((let90 (= let89 let82)))
  (let ((let91 x6_n16))
  (let ((let92 (ff.mul let91 let27)))
  (let ((let93 (ff.add let92 let20)))
  (let ((let94 mul_n23))
  (let ((let95 (ff.mul let94 let93)))
  (let ((let96 (= let95 let88)))
  (let ((let97 x5_n10))
  (let ((let98 (ff.mul let97 let27)))
  (let ((let99 (ff.add let98 let20)))
  (let ((let100 mul_n22))
  (let ((let101 (ff.mul let100 let99)))
  (let ((let102 (= let101 let94)))
  (let ((let103 x4_n2))
  (let ((let104 (ff.mul let103 let27)))
  (let ((let105 (ff.add let104 let20)))
  (let ((let106 mul_n21))
  (let ((let107 (ff.mul let106 let105)))
  (let ((let108 (= let107 let100)))
  (let ((let109 x3_n7))
  (let ((let110 (ff.mul let109 let27)))
  (let ((let111 (ff.add let110 let20)))
  (let ((let112 mul_n20))
  (let ((let113 (ff.mul let112 let111)))
  (let ((let114 (= let113 let106)))
  (let ((let115 x2_n18))
  (let ((let116 (ff.mul let115 let27)))
  (let ((let117 (ff.add let116 let20)))
  (let ((let118 mul_n19))
  (let ((let119 (ff.mul let118 let117)))
  (let ((let120 (= let119 let112)))
  (let ((let121 x1_n13))
  (let ((let122 (ff.mul let121 let27)))
  (let ((let123 (ff.add let122 let20)))
  (let ((let124 x0_n5))
  (let ((let125 (ff.mul let124 let27)))
  (let ((let126 (ff.add let125 let20)))
  (let ((let127 (ff.mul let126 let123)))
  (let ((let128 (= let127 let118)))
  (let ((let129 (and let128 let120 let114 let108 let102 let96 let90 let84 let77 let71 let65 let59 let53 let47 let41 let35)))
  (let ((let130 (ite let6 let20 let23)))
  (let ((let131 (= let66 let130)))
  (let ((let132 (ite let0 let20 let23)))
  (let ((let133 (= let30 let132)))
  (let ((let134 (ite let4 let20 let23)))
  (let ((let135 (= let54 let134)))
  (let ((let136 (ite let10 let20 let23)))
  (let ((let137 (= let85 let136)))
  (let ((let138 (ite let3 let20 let23)))
  (let ((let139 (= let48 let138)))
  (let ((let140 (ite let13 let20 let23)))
  (let ((let141 (= let103 let140)))
  (let ((let142 (ite let5 let20 let23)))
  (let ((let143 (= let60 let142)))
  (let ((let144 (ite let12 let20 let23)))
  (let ((let145 (= let97 let144)))
  (let ((let146 (ite let16 let20 let23)))
  (let ((let147 (= let121 let146)))
  (let ((let148 (ite let1 let20 let23)))
  (let ((let149 (= let36 let148)))
  (let ((let150 (ite let15 let20 let23)))
  (let ((let151 (= let115 let150)))
  (let ((let152 (ite let14 let20 let23)))
  (let ((let153 (= let109 let152)))
  (let ((let154 (ite let9 let20 let23)))
  (let ((let155 (= let79 let154)))
  (let ((let156 (ite let2 let20 let23)))
  (let ((let157 (= let42 let156)))
  (let ((let158 (ite let8 let20 let23)))
  (let ((let159 x9_n9))
  (let ((let160 (= let159 let158)))
  (let ((let161 (ite let7 let20 let23)))
  (let ((let162 (= let72 let161)))
  (let ((let163 (ite let17 let20 let23)))
  (let ((let164 (= let124 let163)))
  (let ((let165 (ite let11 let20 let23)))
  (let ((let166 (= let91 let165)))
  (let ((let167 (and let166 let164 let162 let160 let157 let155 let153 let151 let149 let147 let145 let143 let141 let139 let137 let135 let133 let131)))
  (let ((let168 (and let167 let129)))
  (let ((let169 (=> let168 let26)))
  (let ((let170 (not let169)))
  let170
)))))))))))))))))))))))))))))))))))))))))))))))))))))))))))))))))))))))))))))))))))))))))))))))))))))))))))))))))))))))))))))))))))))))))))))))))))))))))))))))))))))))))))
)
(check-sat)
